NAME : A-n65-k9
COMMENT : (Augerat et al, Min no of trucks: 9, Best value: 1177)
TYPE : CVRP
DIMENSION : 65
EDGE_WEIGHT_TYPE : EUC_2D
CAPACITY : 100
NODE_COORD_SECTION
1 25 51
2 35 7
3 93 75
4 53 95
5 51 81
6 51 55
7 1 67
8 9 23
9 75 7
10 15 97
11 79 5
12 9 19
13 39 1
14 47 1
15 33 97
16 27 83
17 83 79
18 17 59
19 47 19
20 57 9
21 87 41
22 55 25
23 21 91
24 21 13
25 67 1
26 59 21
27 1 75
28 33 85
29 25 21
30 45 29
31 63 77
DEMAND_SECTION
1 0
2 12
3 24
4 16
5 7
6 9
7 20
8 10
9 18
10 26
11 17
12 2
13 11
14 9
15 12
16 11
17 12
18 23
19 7
20 1
21 26
22 10
23 9
24 22
25 21
26 17
27 2
28 15
29 16
30 14
31 23
DEPOT_SECTION
1
-1
EOF
